atom_style charge
boundary p p p
units metal

variable N_CELLS equal 10

# First three basis atoms - SI, others - O
# Crystallographic data from https://next-gen.materialsproject.org/materials/mp-6930
lattice custom 4.92 a1 1.0 0.0 0.0 a2 -0.5 0.0 -0.866025 a3 0.0 1.103659 0.0 &
                    basis 0.00000000  0.33333333  0.46879823 &
                    basis 0.53120177  0.00000000  0.53120177 &
                    basis 0.46879823  0.66666667  0.00000000 &
                    basis 0.14453836  0.54781960  0.73143979 &
                    basis 0.58690143  0.88115293  0.85546164 &
                    basis 0.26856021  0.21448627  0.41309857 &
                    basis 0.41309857  0.78551373  0.26856021 &
                    basis 0.85546164  0.11884707  0.58690143 &
                    basis 0.73143979  0.45218040  0.14453836 &
                    triclinic/general
                    
create_box 2 NULL 0 ${N_CELLS} 0 ${N_CELLS} 0 ${N_CELLS}
create_atoms 1 box basis 1 1 basis 2 1 basis 3 1 basis 4 2 basis 5 2 basis 6 2 basis 7 2 basis 8 2 basis 9 2

mass 1 28.085   # Silicon
mass 2 15.999   # Oxygen

# Force field from 10.1002/pssb.201100786
# mixing rules:
#   epsilon_ij  = sqrt(epsilon_i * epsilon_j)
#   sigma_ij    = sigma_j + sigma_j
# lj/coul parameters:
#           Si      OB      OH      H       OM
#   q       1.600   -0.800  -0.800  0.400   -1.000
#   r_0     1.600   1.762   1.650   1.000   1.650
#   epsilon 0.300   0.261   0.150   0.021   0.150
# units:
#   [q]         = electron
#   [r_0]       = Angstrom
#   [epsilon]   = kcal/mol
# convert to LAMMPS metal units:
#   1 kcal/mol = 0.04336 eV
# convert r_0 to sigma:
#   sigma = r_0/2^(1/6)
# Effective LAMMPS parameters:
#           Si      OB      OH      H       OM      Si-OB
#   q       1.600   -0.800  -0.800  0.400   -1.000  N/A
#   sigma   1.425   1.570   1.470   0.891   1.470   2.995
#   epsilon 0.0130  0.0113  0.0065  0.00091 0.0065  0.0325

pair_style lj/cut/coul/long 10.0
pair_coeff 1 1 0.0130 1.425        # epsilon, sigma for Si-Si
pair_coeff 2 2 0.0113 1.570        # epsilon, sigma for OB-OB
pair_coeff 1 2 0.0325 2.995        # epsilon, sigma for Si-OB
set type 1 charge 1.600            # q for Si
set type 2 charge -0.800           # q for O
kspace_style pppm 1.0e-4

# Configure outputs
thermo 5000
thermo_style custom step temp pe ke press density
dump 1 all custom 5000 dumps.xyz id type x y z

# Initialize thermal velocities
velocity all create 300 90985

minimize 1.0e-4 1.0e-6 10000 10000

timestep 0.001

# Set up NVT run
fix 1 all nvt temp 300.0 300.0 0.1
run 50000
unfix 1

# Set up NPT run
variable nvt_final_pressure equal "press"
fix 1 all npt temp 300.0 300.0 0.1 iso ${nvt_final_pressure} 1.0 1.0
run 1000000

write_data data.lmpdat

