atom_style charge
boundary p p p
units real

variable N_CELLS equal 3

# First three basis atoms - SI, others - O
# Crystallographic data from https://next-gen.materialsproject.org/materials/mp-6930
lattice custom 4.92 a1 1.0 0.0 0.0 a2 -0.5 0.0 -0.866025 a3 0.0 1.103659 0.0 &
                    basis 0.00000000  0.33333333  0.46879823 &
                    basis 0.53120177  0.00000000  0.53120177 &
                    basis 0.46879823  0.66666667  0.00000000 &
                    basis 0.14453836  0.54781960  0.73143979 &
                    basis 0.58690143  0.88115293  0.85546164 &
                    basis 0.26856021  0.21448627  0.41309857 &
                    basis 0.41309857  0.78551373  0.26856021 &
                    basis 0.85546164  0.11884707  0.58690143 &
                    basis 0.73143979  0.45218040  0.14453836 &
                    triclinic/general
                    
create_box 2 NULL 0 ${N_CELLS} 0 ${N_CELLS} 0 ${N_CELLS}
create_atoms 1 box basis 1 1 basis 2 1 basis 3 1 basis 4 2 basis 5 2 basis 6 2 basis 7 2 basis 8 2 basis 9 2

mass 1 28.085   # Silicon
mass 2 15.999   # Oxygen

# ML potential from https://doi.org/10.1038/s41467-024-45840-9
pair_style      reaxff lmp_control
pair_coeff      * * ffield-CaSiOH-lammps.reax Si O

# Configure outputs
thermo 1000
thermo_style custom step temp pe ke press density
dump 1 all custom 1000 dumps.xyz id type x y z

# Initialize thermal velocities
velocity all create 300 90985

fix qeq_fix all qeq/reax 1 0.0 10.0 1e-6 reaxff

minimize 1.0e-4 1.0e-6 10000 10000

timestep 0.1

# Set up NVT run
fix 1 all nvt temp 300.0 300.0 0.1
run 50000
unfix 1

# Set up NPT run
variable nvt_final_pressure equal "press"
fix 1 all npt temp 300.0 300.0 0.1 iso ${nvt_final_pressure} 1.0 1.0
run 1000000

write_data data.lmpdat

